c --- [ banner ] -------------------------------------------------------------
c 
c CaDiCaL Radically Simplified CDCL SAT Solver
c Copyright (c) 2016-2021 A. Biere, M. Fleury, N. Froleyks
c 
c Version 1.5.2 ca9bff05c11bde5eae4912f9932871d1527e61d8
c g++ (GCC) 9.3.0 -Wall -Wextra -O3 -DNDEBUG
c Sun May 1 02:23:23 EDT 2022 Linux gra-login1 3.10.0-1160.59.1.el7.x86_64 x86_64
c 
c --- [ limit ] --------------------------------------------------------------
c 
c setting conflict limit to 200000 conflicts (due to '200000')
c 
c --- [ parsing input ] ------------------------------------------------------
c 
c reading DIMACS file from '26.cubes738.adj'
c opening file to read '26.cubes738.adj'
c found 'p cnf 5320 924213' header
c parsed 924213 clauses in 8.26 seconds process time
c closing file '26.cubes738.adj'
c after reading 686668132 bytes 654.9 MB
c 
c --- [ options ] ------------------------------------------------------------
c 
c all options are set to their default value
c 
c --- [ solving ] ------------------------------------------------------------
c 
c time measured in process time since initialization
c 
c  seconds   reductions  redundant  irredundant
c          MB    restarts       trail      variables
c           level   conflicts       glue        remaining
c 
c *  8.26 688  0 0   0    0    0  0% 0 923580 4076 77%
c {  8.79 716  0 0   0    0    0  0% 0 923580 4076 77%
c i  9.47 736 136 0   0   29   26 47% 7 923580 4072 77%
c i  9.85 743 111 0   1   66   60 48% 12 923580 4059 76%
c i 10.38 749 102 0  10   98   80 45% 17 923580 4036 76%
c i 10.41 749 93 0  12  108   79 44% 16 923580 4020 76%
c i 10.42 749 91 0  13  111   81 43% 16 923580 4019 76%
c - 12.26 714 38 1  16  302   99 36% 11 202183 4019 76%
c i 12.53 681 36 1  19  357  123 37% 12 202183 4018 76%
c i 12.76 681 38 1  26  390  147 37% 12 202183 4017 76%
c i 12.89 681 37 1  29  424  176 37% 12 202183 4012 75%
c i 13.32 681 35 1  41  631  279 38% 11 202183 3991 75%
c i 13.37 681 35 1  41  644  290 39% 11 202183 3990 75%
c i 13.73 681 37 1  56  709  344 40% 13 202183 3989 75%
c i 13.90 681 37 1  63  730  355 40% 14 202183 3988 75%
c i 14.29 681 37 1  79  824  398 40% 14 202183 3987 75%
c i 15.35 682 39 1 113 1000  519 41% 15 202183 3986 75%
c } 15.35 682 39 1 113 1000  519 41% 15 202183 3986 75%
c [ 15.35 682  0 1 113 1000  519  0% 0 202183 3986 75%
c i 15.39 682  2 1 113 1001  519 43% 0 202183 3985 75%
c 
c  seconds   reductions  redundant  irredundant
c          MB    restarts       trail      variables
c           level   conflicts       glue        remaining
c 
c O 15.39 682  2 1 113 1002  520 37% 1 202183 3985 75%
c i 15.42 682  3 1 113 1026  524 33% 3 202183 3964 75%
c i 15.61 682 18 1 113 1082  555 47% 9 202183 3963 74%
c - 15.94 765 18 2 113 1086  519 47% 9 201355 3963 74%
c i 15.98 765 17 2 113 1089  521 48% 9 201355 3962 74%
c i 16.02 765 17 2 113 1109  528 50% 10 201355 3961 74%
c i 16.05 765 17 2 113 1125  531 51% 10 201355 3960 74%
c i 16.10 765 18 2 113 1181  562 52% 12 201355 3959 74%
c i 16.11 765 18 2 113 1197  574 53% 12 201355 3958 74%
c i 16.21 765 17 2 113 1325  631 54% 13 201355 3957 74%
c i 16.24 765 18 2 113 1377  655 54% 13 201355 3956 74%
c i 16.28 765 17 2 113 1412  668 54% 13 201355 3955 74%
c i 16.28 765 17 2 113 1415  670 54% 13 201355 3954 74%
c i 16.44 765 17 2 113 1592  765 55% 14 201355 3953 74%
c i 16.55 765 18 2 113 1757  843 55% 15 201355 3952 74%
c i 16.56 765 18 2 113 1766  847 55% 15 201355 3951 74%
c i 16.57 765 18 2 113 1788  860 56% 15 201355 3950 74%
c i 16.58 765 18 2 113 1808  870 56% 15 201355 3949 74%
c i 16.65 765 17 2 113 1924  914 56% 15 201355 3948 74%
c i 16.68 765 17 2 113 1993  952 56% 15 201355 3947 74%
c 
c  seconds   reductions  redundant   irredundant
c          MB    restarts       trail       variables
c           level   conflicts       glue         remaining
c 
c i 16.73 765 18 2 114 2064  982 56% 15 201355 3946 74%
c i 16.77 765 18 2 114 2121 1022 56% 15 201355 3945 74%
c i 16.81 765 18 2 114 2169 1031 56% 15 201355 3944 74%
c i 16.81 765 18 2 114 2171 1032 56% 15 201355 3943 74%
c i 16.81 765 18 2 114 2174 1034 56% 15 201355 3942 74%
c i 16.81 765 18 2 114 2175 1034 56% 15 201355 3941 74%
c i 16.81 765 18 2 114 2177 1035 56% 15 201355 3940 74%
c i 16.81 765 18 2 114 2178 1035 56% 15 201355 3939 74%
c i 16.82 765 18 2 114 2185 1038 56% 15 201355 3938 74%
c i 16.83 765 18 2 114 2203 1049 56% 15 201355 3937 74%
c i 16.83 765 18 2 114 2207 1048 56% 15 201355 3936 74%
c - 17.05 761 18 3 114 2260  857 56% 15 201274 3936 74%
c i 17.22 761 18 3 114 2275  865 38% 15 201274 3935 74%
c i 17.33 761 18 3 114 2397  919 40% 15 201274 3934 74%
c i 17.35 761 18 3 114 2422  929 40% 15 201274 3933 74%
c i 17.41 761 18 3 114 2516  980 40% 15 201274 3932 74%
c i 17.43 761 18 3 114 2577 1008 40% 15 201274 3931 74%
c i 17.48 761 18 3 114 2669 1056 40% 15 201274 3930 74%
c i 17.54 761 17 3 114 2832 1126 41% 15 201274 3929 74%
c i 17.55 761 17 3 114 2854 1136 41% 15 201274 3928 74%
c 
c  seconds   reductions  redundant   irredundant
c          MB    restarts       trail       variables
c           level   conflicts       glue         remaining
c 
c i 17.60 761 17 3 114 2958 1179 41% 15 201274 3927 74%
c ] 17.62 761 17 3 114 3001 1203 41% 15 201274 3927 74%
c { 17.62 761 39 3 114 3001 1203 55% 15 201274 3927 74%
c F 17.63 761 39 3 116 3006 1207 55% 15 201274 3927 74%
c i 17.82 761 39 3 121 3044 1238 55% 15 201274 3926 74%
c i 17.83 761 39 3 121 3046 1239 54% 15 201274 3925 74%
c i 17.95 761 37 3 121 3182 1331 53% 15 201274 3924 74%
c i 17.95 761 36 3 121 3187 1335 53% 15 201274 3923 74%
c i 17.97 761 35 3 121 3240 1356 52% 15 201274 3922 74%
c i 18.00 761 34 3 121 3306 1395 51% 15 201274 3921 74%
c i 18.01 761 34 3 121 3356 1425 51% 15 201274 3920 74%
c i 18.03 761 33 3 121 3399 1457 51% 15 201274 3919 74%
c i 18.04 761 32 3 121 3454 1483 50% 14 201274 3918 74%
c i 18.17 761 31 3 138 3677 1600 49% 14 201274 3917 74%
c - 18.42 758 29 4 138 3824 1241 48% 14 201217 3917 74%
c i 18.80 758 25 4 147 4513 1596 45% 13 201217 3916 74%
c i 18.81 758 25 4 147 4521 1602 45% 13 201217 3915 74%
c i 19.02 758 24 4 161 4868 1849 44% 13 201217 3914 74%
c i 19.02 758 24 4 161 4871 1851 44% 13 201217 3913 74%
c i 19.06 758 24 4 162 4887 1866 44% 13 201217 3912 74%
c 
c  seconds   reductions  redundant   irredundant
c          MB    restarts       trail       variables
c           level   conflicts       glue         remaining
c 
c i 19.10 758 24 4 168 4921 1896 44% 13 201217 3911 74%
c d 19.45 758 24 4 169 5002 1953 44% 13 198870 3891 73%
c 2 19.50 758 24 4 169 5002 4148 44% 13 198811 3891 73%
c p 21.55 758 24 4 169 5002 9568 44% 13 198811 3700 70%
c d 21.85 758 24 4 169 5002 8797 44% 13 191692 3696 69%
c - 22.64 741 22 5 181 5779 1949 43% 13 191692 3696 69%
c # 22.74 741 22 5 181 6008 2086 43% 13 191692 3696 69%
c } 23.99 741 22 5 326 7001 2757 42% 14 191692 3696 69%
c [ 23.99 741 17 5 326 7001 2757 41% 15 191692 3696 69%
c - 24.67 742 20 6 327 8088 2432 40% 16 191692 3696 69%
c I 25.43 742 21 6 328 10010 3773 39% 17 191692 3696 69%
c - 25.96 742 23 7 329 10781 3228 39% 18 191692 3696 69%
c - 27.90 742 25 8 331 13859 3756 39% 20 191692 3696 69%
c ] 28.69 742 25 8 331 15002 4531 39% 20 191692 3696 69%
c { 28.69 742 22 8 331 15002 4531 42% 14 191692 3696 69%
c 2 28.74 742 22 8 332 15002 6348 42% 14 191665 3696 69%
c p 29.36 742 22 8 332 15002 11188 42% 14 191665 3696 69%
c B 29.46 742 22 8 335 15012 11196 42% 14 191665 3696 69%
c s 30.20 742 21 8 354 15650 11151 41% 13 189084 3696 69%
c v 32.05 742 21 8 354 15650 11151 41% 13 188978 3696 69%
c 
c  seconds   reductions    redundant   irredundant
c          MB    restarts         trail       variables
c           level    conflicts        glue         remaining
c 
c w 32.10 742 21 8 354 15650 11147 41% 13 188978 3696 69%
c t 32.11 742 21 8 354 15650 11138 41% 13 188918 3696 69%
c e 32.52 743 21 8 354 15650 5764 41% 13 183183 699 13%
c s 32.61 743 21 8 354 15650 5762 41% 13 181547 699 13%
c - 34.75 683 20 9 437 17324 3754 68% 13 181547 699 13%
c W 37.28 683 18 9 515 21015 5818 69% 12 181547 699 13%
c - 37.47 683 18 10 536 21101 3892 69% 12 181547 699 13%
c i 38.28 683 18 10 590 21810 4320 69% 12 181547 693 13%
c - 41.01 683 17 11 673 25255 4187 69% 12 144449 693 13%
c F 42.82 683 16 11 772 28018 5508 69% 12 144449 693 13%
c - 44.63 684 17 12 1064 29430 4587 69% 13 144449 693 13%
c d 45.05 684 17 12 1092 30002 4899 69% 13 123044 691 13%
c 3 45.06 684 17 12 1092 30002 5516 69% 13 123044 691 13%
c 2 45.09 684 17 12 1092 30002 5630 69% 13 123043 690 13%
c p 47.21 684 17 12 1092 30002 8544 69% 13 123043 674 13%
c d 47.37 684 17 12 1092 30002 8169 69% 13 117473 673 13%
c } 48.04 684 17 12 1140 31003 8730 69% 13 117473 673 13%
c [ 48.04 684 25 12 1140 31003 8730 218% 20 117473 673 13%
c - 49.45 685 23 13 1141 33952 5364 179% 19 117473 673 13%
c B 51.01 685 22 13 1143 36020 6663 162% 18 117473 673 13%
c 
c  seconds   reductions     redundant    irredundant
c          MB     restarts         trail        variables
c           level      conflicts        glue        remaining
c 
c - 52.83 685 23 14 1144 38445 6048 147% 19 117473 673 13%
c - 56.72 685 22 15 1147 43259 6564 128% 19 117473 673 13%
c W 58.70 685 22 15 1147 45023 7754 123% 18 117473 673 13%
c s 60.38 685 22 15 1148 47734 9857 116% 18 116546 673 13%
c v 61.91 685 22 15 1148 47734 9857 116% 18 116494 673 13%
c w 61.98 685 22 15 1148 47734 9853 116% 18 116494 673 13%
c t 61.99 685 22 15 1148 47734 9832 116% 18 116491 673 13%
c e 62.22 685 22 15 1148 47734 9812 116% 18 116171 565 11%
c s 62.34 685 22 15 1148 47734 9807 116% 18 114861 565 11%
c - 63.24 685 22 16 1148 48394 6914 79% 18 114861 565 11%
c p 65.86 685 22 16 1148 50003 11142 79% 18 114861 560 11%
c - 69.73 685 22 17 1148 53801 7057 79% 18 114846 560 11%
c O 70.67 685 22 17 1149 55029 7759 79% 18 114846 560 11%
c ] 71.28 685 22 17 1150 56292 8392 79% 18 114846 560 11%
c 1 71.28 685 22 17 1150 56292 8392 79% 18 114846 560 11%
c 
c --- [ writing output ] -----------------------------------------------------
c 
c writing simplified CNF to DIMACS file 'simp/26.cubes738.adj.simp1'
c * 71.28 685 22 17 1150 56292 8392 79% 18 114846 560 11%
c opening file to write 'simp/26.cubes738.adj.simp1'
c writing 'p cnf 5320 114846' header
c closing file 'simp/26.cubes738.adj.simp1'
c after writing 41658321 bytes 39.7 MB
c wrote 114846 clauses in 0.29 seconds process time
c 
c --- [ writing extension ] --------------------------------------------------
c 
c writing extension stack to 'simp/26.cubes738.adj.ext1'
c opening file to write 'simp/26.cubes738.adj.ext1'
c closing file 'simp/26.cubes738.adj.ext1'
c after writing 187551 bytes 0.2 MB
c wrote 8391 witnesses in 0.00 seconds process time
c 
c --- [ result ] -------------------------------------------------------------
c 
s SATISFIABLE
c 
c --- [ run-time profiling ] -------------------------------------------------
c 
c process time taken by individual solving procedures
c (percentage relative to process time for solving)
c 
c        50.57   80.24% search
c        25.77   40.90% stable
c        23.51   37.31% unstable
c        12.45   19.76% simplify
c         8.26   13.10% parse
c         6.28    9.97% probe
c         3.47    5.51% vivify
c         1.22    1.93% elim
c         0.75    1.19% walk
c         0.54    0.85% lucky
c         0.41    0.65% subsume
c         0.11    0.18% ternary
c   =================================
c        63.02   88.06% solve
c 
c last line shows process time for solving
c (percentage relative to total process time)
c 
c --- [ statistics ] ---------------------------------------------------------
c 
c chronological:              8404        14.93 %  of conflicts
c conflicts:                 56292       893.28    per second
c decisions:                 91756      1456.05    per second
c eliminated:                 3105        58.36 %  of all variables
c fixed:                      1628        30.60 %  of all variables
c learned:                   55203        98.07 %  per conflict
c learned_lits:            9000715       100.00 %  learned literals
c minimized:                     0         0.00 %  learned literals
c shrunken:                5863300        65.14 %  learned literals
c minishrunken:             854428         9.49 %  learned literals
c propagations:            5648316         0.09 M  per second
c reduced:                   26737        47.50 %  per conflict
c rephased:                     10      5629.20    interval
c restarts:                   1150        48.95    interval
c stabilizing:                   3        62.69 %  of conflicts
c substituted:                  27         0.51 %  of all variables
c subsumed:                  26692         1.26 %  of all clauses
c strengthened:               8479         0.40 %  of all clauses
c ternary:                    5320         0.60 %  of resolved
c vivified:                    179         0.01 %  of all clauses
c walked:                        2     28146.00    interval
c weakened:                   6763         2.97    average size
c 
c seconds are measured in process time for solving
c 
c --- [ resources ] ----------------------------------------------------------
c 
c total process time since initialization:        71.56    seconds
c total real time since initialization:           71.84    seconds
c maximum resident set size of process:          844.10    MB
c 
c --- [ shutting down ] ------------------------------------------------------
c 
c exit 10
WARNING! DIMACS header mismatch: wrong number of variables.
============================[ Problem Statistics ]=============================
|                                                                             |
|  Number of variables:          3948                                         |
|  Number of clauses:          114854                                         |
|  Parse time:                   0.64 s                                       |
|  Simplification time:          0.02 s                                       |
|                                                                             |
============================[ Search Statistics ]====================================================
| Conflicts |          ORIGINAL         |          LEARNT          | Num Sols |      SUBGRAPHS      |
|           |    Vars  Clauses Literals |    Limit  Clauses Lit/Cl |          | Canonical Noncanon. |
=====================================================================================================
|       100 |    3861   114854  9335608 |     2000      100    111 |        0 |        24         0 |
|       417 |    3861   115021  9337299 |     2000      417     34 |        0 |       136       167 |
|       828 |    3861   115207  9339684 |     2000      828     33 |        0 |       176       353 |
|      1181 |    3861   115223  9340246 |     2000     1181     47 |        0 |       188       369 |
|      3160 |    3778   116694  9352432 |     3601     2155      9 |        0 |       351      1842 |
|      3957 |    3595   116732  9352694 |     3601     2931     15 |        0 |       363      1880 |
=====================================================================================================
Number of solutions   : 0
Canonical subgraphs   : 363            (303 /sec)
          order  3    : 1              (250000 /sec)
          order  4    : 1              (1000000 /sec)
          order  5    : 1              (200000 /sec)
          order  6    : 1              (55556 /sec)
          order  7    : 2              (10152 /sec)
          order  8    : 5              (3628 /sec)
          order  9    : 10             (2155 /sec)
          order 10    : 20             (1217 /sec)
          order 11    : 53             (670 /sec)
          order 12    : 97             (435 /sec)
          order 13    : 78             (290 /sec)
          order 14    : 93             (156 /sec)
          order 15    : 1              (115 /sec)
          order 16    : 0              (-nan /sec)
          order 17    : 0              (-nan /sec)
          order 18    : 0              (-nan /sec)
          order 19    : 0              (-nan /sec)
          order 20    : 0              (-nan /sec)
          order 21    : 0              (-nan /sec)
Noncanonical subgraphs: 1893           (1550 /sec)
          order  3    : 0              (-nan /sec)
          order  4    : 0              (-nan /sec)
          order  5    : 0              (-nan /sec)
          order  6    : 0              (-nan /sec)
          order  7    : 0              (-nan /sec)
          order  8    : 0              (-nan /sec)
          order  9    : 0              (-nan /sec)
          order 10    : 0              (-nan /sec)
          order 11    : 0              (-nan /sec)
          order 12    : 0              (-nan /sec)
          order 13    : 372            (9572 /sec)
          order 14    : 1134           (1426 /sec)
          order 15    : 387            (1000 /sec)
          order 16    : 0              (-nan /sec)
          order 17    : 0              (-nan /sec)
          order 18    : 0              (-nan /sec)
          order 19    : 0              (-nan /sec)
          order 20    : 0              (-nan /sec)
Canonicity checking   : 1.19758 s
Noncanonicity checking: 1.22095 s
Total canonicity time : 2.41854 s
database reductions   : 2
restarts              : 25
conflicts             : 4719           (1206 /sec)
decisions             : 13216          (0.00 % random) (3378 /sec)
propagations          : 199621         (51027 /sec)
conflict literals     : 123526         (54.64 % deleted)
actual reward         : 0.219842
Memory used           : 59.00 MB
CPU time              : 3.9121 s

UNSATISFIABLE
